17	4
19	18	19	17	
0	0	0	0	0	3	2	3	4	
3	10	10	5	5	3	8	14	15	
2	10	2	3	8	3	6	7	16	
1	5	9	2	8	3	5	10	11	
7	3	2	10	10	3	9	17	17	
50	4	6	10	8	1	12	
25	1	7	2	1	1	13	
225	10	8	8	2	1	17	
200	8	4	4	3	1	17	
200	4	2	3	2	1	17	
200	2	9	2	5	1	17	
100	8	2	6	2	2	17	17	
10	9	1	2	6	1	17	
4	8	4	10	9	2	17	17	
10	4	6	4	1	2	17	17	
7	7	8	8	2	1	17	
0	0	0	0	0	0	
